44 36 97 100 
19 67 94 6 98 43 93 26 
70 
52 29 5 12 48 
38 82 96 95 
51 14 75 4 46 1 
18 79 53 31 80 59 
11 23 
15 62 40 99 49 85 55 34 89 74 
17 
73 45 7 83 
87 
30 84 9 91 72 68 25 
92 88 86 77 
27 41 16 56 35 60 58 
42 28 39 37 
8 20 71 
32 10 13 
65 33 61 47 64 63 69 76 2 57 3 78 81 90 22 21 50 66 24 54 

